MD17 STRUCTURE
  1000.0000000
   1.0000000000    0.0000000000    0.0000000000
   0.0000000000    1.0000000000    0.0000000000
   0.0000000000    0.0000000000    1.0000000000
C O H
2 1 6
Cartesian
  -0.1336862600   -0.5305276200    0.1450313700
  -1.0662848200    0.5848809500    0.2873225000
   1.1097482900   -0.0382285400   -0.3660061300
   0.1207925800   -0.9677831300    1.2261777300
  -0.5975841300   -1.2603501500   -0.5296625800
  -1.9918272500    0.2093902600    0.8934791000
  -0.6152444700    1.4002784200    0.9952492900
  -1.4392990500    0.9123605400   -0.6742841700
   1.2056919800   -0.3362594900   -1.2531763900
