MD17 STRUCTURE
  1000.0000000
   1.0000000000    0.0000000000    0.0000000000
   0.0000000000    1.0000000000    0.0000000000
   0.0000000000    0.0000000000    1.0000000000
C O H
2 1 6
Cartesian
  -0.3621110100   -0.0829104400   -0.4943107100
   0.9021255300    0.8809099600   -0.3885197400
  -0.4819160800   -0.7578595500    0.7776443800
  -1.3903080800    0.3154931300   -0.7429634200
  -0.0506002700   -0.8280645800   -1.1854501800
   1.7569762400    0.1566488800   -0.3023977400
   1.0815220200    1.5060567900   -1.3599802800
   1.0565674800    1.5610942300    0.5253243800
  -1.2403760900   -0.1919781900    1.2415175200
