MD17 STRUCTURE
  1000.0000000
   1.0000000000    0.0000000000    0.0000000000
   0.0000000000    1.0000000000    0.0000000000
   0.0000000000    0.0000000000    1.0000000000
C O H
2 1 6
Cartesian
   0.3480833900    0.4224273200    0.2952947900
  -1.1000035900   -0.1188285900    0.7496916500
   0.7523591400   -0.2587655900   -0.9270720800
   0.0906124000    1.4926964600    0.0659050000
   1.2358529800    0.4191806100    0.9901189500
  -1.4066091900    0.3060220200    1.7463296100
  -1.8042209800    0.2565162900   -0.0706026300
  -1.1198257700   -1.1842756700    0.8373892900
   0.0206758400   -0.8018677500   -1.3055347500
