MD17 STRUCTURE
  1000.0000000
   1.0000000000    0.0000000000    0.0000000000
   0.0000000000    1.0000000000    0.0000000000
   0.0000000000    0.0000000000    1.0000000000
C O H
2 1 6
Cartesian
   0.1381348400    0.6393452100    0.0828460100
  -1.2485105700   -0.0865625700   -0.3257567700
   1.0066736600   -0.4882119200    0.2659885000
   0.4948144200    1.3755770900   -0.6286002400
   0.2117679400    1.1496237500    1.1055158900
  -1.8718510700    0.5495824300   -1.0684434000
  -0.9360429000   -1.0122461900   -0.7320669500
  -1.8532324500   -0.1319943500    0.6363106200
   1.2055891200   -0.7694823600   -0.6403030300
