MD17 STRUCTURE
  1000.0000000
   1.0000000000    0.0000000000    0.0000000000
   0.0000000000    1.0000000000    0.0000000000
   0.0000000000    0.0000000000    1.0000000000
C O H
2 1 6
Cartesian
   0.0391533000   -0.5499444400    0.1693295600
  -1.2748144200    0.2001846900   -0.1487145900
   1.0919436800    0.3486056900   -0.0189870500
   0.1730070100   -0.8503889500    1.1875538500
  -0.0245147100   -1.4625677700   -0.3664702300
  -1.5904821700    0.9350696600    0.6251019100
  -1.0505213800    0.6480553600   -1.1404474300
  -2.1060276000   -0.5384628600   -0.3389432700
   1.9889731400   -0.0989839300    0.0889437900
