MD17 STRUCTURE
  1000.0000000
   1.0000000000    0.0000000000    0.0000000000
   0.0000000000    1.0000000000    0.0000000000
   0.0000000000    0.0000000000    1.0000000000
C O H
2 1 6
Cartesian
   0.5295171300    0.2547596000    0.0449979500
  -0.7806761800    0.9160941000   -0.5104967700
   0.2074865900   -1.0786346700    0.3691844600
   1.3049248900    0.4504963100   -0.7702178400
   0.8900927800    0.8011964700    0.8738778500
  -1.1276520800    0.7497734900   -1.5421674300
  -1.5061682300    0.5755423800    0.3326695400
  -0.6873371400    1.8918049800   -0.3764574600
   0.8244730500   -1.3007450600    1.1690197300
