MD17 STRUCTURE
  1000.0000000
   1.0000000000    0.0000000000    0.0000000000
   0.0000000000    1.0000000000    0.0000000000
   0.0000000000    0.0000000000    1.0000000000
C O H
2 1 6
Cartesian
  -0.0548254300    0.3086692500   -0.4745487300
  -1.2203559800   -0.1123903400    0.5583630200
   1.1637402400   -0.1897312900   -0.0444443600
  -0.4001502600   -0.1424868600   -1.5134375700
   0.0672299500    1.3909546500   -0.4869022500
  -0.9940337900   -0.0369652900    1.6174743000
  -2.0767703900    0.5352466600    0.2862899200
  -1.7482993800   -1.1608164600    0.4150658100
   1.8737321900    0.0853648900   -0.6117469500
