MD17 STRUCTURE
  1000.0000000
   1.0000000000    0.0000000000    0.0000000000
   0.0000000000    1.0000000000    0.0000000000
   0.0000000000    0.0000000000    1.0000000000
C O H
2 1 6
Cartesian
   0.1972895800   -0.0385973600    0.5010876600
  -1.3108553600    0.1499270300    0.2498191000
   1.0381147400   -0.1553056900   -0.6648858200
   0.4771819600    0.8097986800    1.2501305400
   0.5307940500   -0.9155212200    1.0482695300
  -1.3951768300    0.5059565700   -0.7253120200
  -2.0109939700   -0.7411206600    0.3233628400
  -1.7866547200    0.8631733800    0.9753563500
   0.9748315900    0.6148230700   -1.2657012000
