MD17 STRUCTURE
  1000.0000000
   1.0000000000    0.0000000000    0.0000000000
   0.0000000000    1.0000000000    0.0000000000
   0.0000000000    0.0000000000    1.0000000000
C O H
2 1 6
Cartesian
   0.4505624500   -0.1994539200   -0.3410689700
   0.2772770600    1.2545568100   -0.0144706200
  -0.6563598000   -0.8866505600    0.3426451000
   0.4793088000   -0.4418804500   -1.4884380400
   1.4440174700   -0.6887003200   -0.1017283000
   0.6628785900    1.3489086700    0.9988389500
   0.7535797500    1.8780791600   -0.7716598800
  -0.8267870900    1.1624680400    0.1184323900
  -0.7683460600   -1.7589439400    0.0422643900
