MD17 STRUCTURE
  1000.0000000
   1.0000000000    0.0000000000    0.0000000000
   0.0000000000    1.0000000000    0.0000000000
   0.0000000000    0.0000000000    1.0000000000
C O H
2 1 6
Cartesian
  -0.1472040900    0.3446151100   -0.4038971300
  -1.1976099600   -0.1774388600    0.5212751800
   1.2245283400   -0.1096191900   -0.1135236500
  -0.3183607500    0.1409188400   -1.4962981700
  -0.1164269100    1.4647179500   -0.3632058900
  -0.9238910900    0.2340213300    1.5294779400
  -2.2164090600    0.2551436000    0.3090220400
  -1.0510773000   -1.2595190700    0.5172608300
   1.2127104300   -1.0888439600   -0.0929413000
