MD17 STRUCTURE
  1000.0000000
   1.0000000000    0.0000000000    0.0000000000
   0.0000000000    1.0000000000    0.0000000000
   0.0000000000    0.0000000000    1.0000000000
C O H
2 1 6
Cartesian
   0.2518198200    0.5221573200    0.2077269900
  -1.0605986300   -0.1403037900    0.7666807700
   0.6792650300   -0.3275587900   -0.8829738700
   0.0112265200    1.5719969700   -0.0109568600
   1.1562598700    0.4482645100    0.8267545600
  -1.4958993200    0.6372096500    1.3657457500
  -1.5774880100   -0.5008755600   -0.0917080700
  -0.8972947500   -1.1455279500    1.2608873800
   1.6574625300   -0.3633070600   -0.9460827100
