MD17 STRUCTURE
  1000.0000000
   1.0000000000    0.0000000000    0.0000000000
   0.0000000000    1.0000000000    0.0000000000
   0.0000000000    0.0000000000    1.0000000000
C O H
2 1 6
Cartesian
  -0.0336081600    0.2917019300    0.4632349800
   0.6611006300    0.9336553600   -0.8030448900
  -0.5017611500   -1.1389336500    0.3023011800
   0.4727461900    0.4960168700    1.4234418900
  -0.8808234300    0.9593222400    0.6062354200
   0.0131809000    1.0093290300   -1.7004018300
   0.8181216700    1.9287355400   -0.4720084200
   1.5843051500    0.2318305800   -0.9886015800
  -1.5211357700   -1.1494876100    0.3820016800
