MD17 STRUCTURE
  1000.0000000
   1.0000000000    0.0000000000    0.0000000000
   0.0000000000    1.0000000000    0.0000000000
   0.0000000000    0.0000000000    1.0000000000
C O H
2 1 6
Cartesian
   0.5332811700   -0.2747027300   -0.0746742700
   0.3024249300    1.1333640900   -0.1591563100
  -0.7547130300   -0.7577072300    0.2456550900
   0.9782261500   -0.6715979300   -1.0772527000
   1.2290984200   -0.5815718200    0.7271540700
   1.2220327700    1.6468145200   -0.5349478800
  -0.4147255400    1.3852557100   -0.9363132900
  -0.0162610700    1.6191052500    0.8142733400
  -0.9778701900   -1.6040249900   -0.1059411700
