MD17 STRUCTURE
  1000.0000000
   1.0000000000    0.0000000000    0.0000000000
   0.0000000000    1.0000000000    0.0000000000
   0.0000000000    0.0000000000    1.0000000000
C O H
2 1 6
Cartesian
   0.1243512100    0.4933942800   -0.1892457200
  -1.2855109300   -0.0805460000   -0.3658960000
   1.0331960600   -0.3278874200    0.5541257100
   0.5567910700    0.7689881900   -1.1662541300
   0.1956109400    1.3718940300    0.4150468800
  -1.0438498400   -1.2410964700   -0.4392704600
  -2.0071339900    0.0229384000    0.4711917500
  -1.6676228100    0.3787155000   -1.3578256600
   1.4013962500   -1.0177988000   -0.1036116500
