MD17 STRUCTURE
  1000.0000000
   1.0000000000    0.0000000000    0.0000000000
   0.0000000000    1.0000000000    0.0000000000
   0.0000000000    0.0000000000    1.0000000000
C O H
2 1 6
Cartesian
   0.3430812800   -0.1111455800   -0.4087099800
  -0.5745553900    1.2283513700   -0.3028297800
   0.2740845100   -1.0401813000    0.6469851300
  -0.0736158500   -0.4340415500   -1.3209303300
   1.4326140700    0.1704200500   -0.5724132300
  -0.2501688900    1.9427472200   -1.0804642300
  -1.6082875600    0.9111560700   -0.5238538200
  -0.4821495000    1.7485417200    0.7144984000
  -0.6117595800   -1.1418663200    0.9921009200
