MD17 STRUCTURE
  1000.0000000
   1.0000000000    0.0000000000    0.0000000000
   0.0000000000    1.0000000000    0.0000000000
   0.0000000000    0.0000000000    1.0000000000
C O H
2 1 6
Cartesian
  -0.3183134000    0.3786549700    0.3256139400
   0.9140467400    0.8012817300   -0.6107840400
  -0.6196414600   -1.0622641700    0.2710474600
  -0.1637600200    0.7189304500    1.4080429400
  -1.1142151200    0.9608250700   -0.0830334700
   1.0176258000    0.1636765200   -1.5587388200
   0.8812571500    1.8030508500   -0.9900458800
   1.8680056900    0.6490766200    0.0976676100
   0.2470828500   -1.4955798100    0.2217837400
