MD17 STRUCTURE
  1000.0000000
   1.0000000000    0.0000000000    0.0000000000
   0.0000000000    1.0000000000    0.0000000000
   0.0000000000    0.0000000000    1.0000000000
C O H
2 1 6
Cartesian
  -0.0929419400    0.2107215000   -0.5394429900
  -1.1756750600   -0.0872961000    0.5422298700
   1.1669586400   -0.1470034300   -0.0848036300
  -0.2962896100   -0.3210393300   -1.5028161900
  -0.2472997700    1.3331605700   -0.7716336900
  -0.8793319200    0.4159117500    1.5413096600
  -2.1103935000    0.3265328400    0.2700668900
  -1.2254861500   -1.0608561100    0.9925788700
   1.3512004500    0.1674815600    0.7834048200
