MD17 STRUCTURE
  1000.0000000
   1.0000000000    0.0000000000    0.0000000000
   0.0000000000    1.0000000000    0.0000000000
   0.0000000000    0.0000000000    1.0000000000
C O H
2 1 6
Cartesian
  -0.3712901700   -0.5450890300    0.0375653300
  -0.8343317100    0.9733403000    0.2749827800
   1.0818992800   -0.3931307000   -0.3291977600
  -0.6216542000   -1.1103995300    0.9556079100
  -0.7633049700   -0.9011746000   -0.9549532800
  -1.8291630400    0.6386926100    0.3189044700
  -0.5919291500    1.4470526400    1.2549390500
  -0.6518318000    1.6820215600   -0.6054171200
   1.6498056500   -0.6204647700    0.5320452200
