MD17 STRUCTURE
  1000.0000000
   1.0000000000    0.0000000000    0.0000000000
   0.0000000000    1.0000000000    0.0000000000
   0.0000000000    0.0000000000    1.0000000000
C O H
2 1 6
Cartesian
   0.2867867500   -0.0805440100   -0.4735304700
  -0.6667106900    1.1016590100   -0.2108535100
   0.3402451000   -0.8792267600    0.6582806800
  -0.1628730100   -0.6430226800   -1.3161894900
   1.2799314700    0.2344609300   -0.8432406300
  -0.1512842000    1.8692797100    0.3395601200
  -0.7313924200    1.3379296300   -1.2727182200
  -1.5819260500    0.8991637100    0.3530524900
   0.4729266300   -1.9107182000    0.4455843300
