MD17 STRUCTURE
  1000.0000000
   1.0000000000    0.0000000000    0.0000000000
   0.0000000000    1.0000000000    0.0000000000
   0.0000000000    0.0000000000    1.0000000000
C O H
2 1 6
Cartesian
   0.2193477500    0.2696015500    0.4091948500
  -1.3616814800    0.1392431300    0.2802740600
   1.0377028600   -0.3845964200   -0.5892811700
   0.6209896000    1.3411997700    0.5318267000
   0.4943082200   -0.2876180200    1.2804794400
  -2.0037334500    0.7331578400    0.9463129700
  -1.6856614900    0.1590424300   -0.8163393700
  -1.6406811800   -0.9772702400    0.4356504100
   1.3540997600    0.2629991000   -1.2398258000
