MD17 STRUCTURE
  1000.0000000
   1.0000000000    0.0000000000    0.0000000000
   0.0000000000    1.0000000000    0.0000000000
   0.0000000000    0.0000000000    1.0000000000
C O H
2 1 6
Cartesian
   0.1635761000    0.4512568800   -0.2154669300
  -1.3475596900   -0.0141233200   -0.3745986000
   1.0735010400   -0.4158257800    0.5034238800
   0.5750814900    0.6682338200   -1.2124828600
   0.1380667900    1.3422078300    0.3350701000
  -1.3044237900   -1.1484713400   -0.3571070800
  -1.9536802500    0.1815407200    0.4757681000
  -1.9605930000    0.1452998700   -1.2089628000
   1.5729358000    0.2013222300    1.0079551100
