MD17 STRUCTURE
  1000.0000000
   1.0000000000    0.0000000000    0.0000000000
   0.0000000000    1.0000000000    0.0000000000
   0.0000000000    0.0000000000    1.0000000000
C O H
2 1 6
Cartesian
   0.1299184700    0.5741502000    0.2149336900
  -1.2390133400   -0.2372734400    0.4052228600
   1.0229599400   -0.2266800800   -0.5984600300
   0.1194138900    1.4797656300   -0.3820418300
   0.6725583600    0.7994825500    1.1483638500
  -2.2330303500    0.2148095600    0.6937513900
  -1.5091667200   -0.8920252900   -0.4082029100
  -1.0876355400   -0.8656849500    1.3578658200
   1.0151243400   -1.1539244500   -0.3000004500
