MD17 STRUCTURE
  1000.0000000
   1.0000000000    0.0000000000    0.0000000000
   0.0000000000    1.0000000000    0.0000000000
   0.0000000000    0.0000000000    1.0000000000
C O H
2 1 6
Cartesian
   0.4726687800    0.2048585400   -0.2871941000
  -0.6922239100    1.0842234200   -0.1923781000
   0.2013117700   -1.1811059400    0.3869804300
   0.7106954500   -0.0351460800   -1.3652127900
   1.3778818700    0.5194767900    0.2077403100
  -1.6089883100    0.5721748900   -0.6839946000
  -0.9352104700    1.4136836400    0.9153402100
  -0.6169361900    1.9287439800   -0.7920842100
   0.4923110900   -1.0131190100    1.2901529800
