MD17 STRUCTURE
  1000.0000000
   1.0000000000    0.0000000000    0.0000000000
   0.0000000000    1.0000000000    0.0000000000
   0.0000000000    0.0000000000    1.0000000000
C O H
2 1 6
Cartesian
   0.1360193400   -0.5232603600   -0.0038146000
  -1.1227710400    0.1175230200   -0.6711223900
   0.8943263000    0.3992006700    0.5855350500
  -0.0735846200   -1.4136140800    0.7683745900
   0.6579921000   -0.9627622200   -0.8588450600
  -0.7904133200    0.9610492900   -1.2551287300
  -1.7275587800   -0.6980550500   -1.2508484800
  -1.8570368700    0.5627894300    0.0388845500
   1.3518626000    0.0472354400    1.3057587100
