MD17 STRUCTURE
  1000.0000000
   1.0000000000    0.0000000000    0.0000000000
   0.0000000000    1.0000000000    0.0000000000
   0.0000000000    0.0000000000    1.0000000000
C O H
2 1 6
Cartesian
  -0.2043417900    0.3915254400    0.3920351400
   0.3509908100    0.8032997500   -0.9823912800
  -0.0913304100   -1.0790597600    0.5217071600
   0.2881556100    0.7520837600    1.3842911700
  -1.2531868000    0.7199278600    0.4314677400
  -0.3064124300    1.0600038700   -1.7256124600
   1.0659855500    1.6077345600   -0.7362098000
   1.0171151800    0.0454082300   -1.2502026000
  -1.1104075900   -1.2959886500    0.6497523400
