MD17 STRUCTURE
  1000.0000000
   1.0000000000    0.0000000000    0.0000000000
   0.0000000000    1.0000000000    0.0000000000
   0.0000000000    0.0000000000    1.0000000000
C O H
2 1 6
Cartesian
  -0.0847364500    0.5976120100    0.0873384100
  -0.8410825200   -0.2594794000   -0.9005267100
   0.7911053200   -0.2721907600    0.7935816200
   0.6152932200    1.2049507700   -0.4549811400
  -0.6663408200    1.2073223700    0.6990469100
  -1.5716500700    0.2197704700   -1.5328159300
  -0.0728450000   -0.7453942600   -1.5132892300
  -1.3630829900   -1.0230647600   -0.3659665600
   1.5322713500   -0.5737187600    0.2612169100
