MD17 STRUCTURE
  1000.0000000
   1.0000000000    0.0000000000    0.0000000000
   0.0000000000    1.0000000000    0.0000000000
   0.0000000000    0.0000000000    1.0000000000
C O H
2 1 6
Cartesian
   0.3687901800   -0.3790281800   -0.1520662900
   0.7834391300    1.0518905900    0.1809450300
  -1.0432927600   -0.6596506200   -0.0311517600
   0.6102384400   -0.7539701500   -1.1401635800
   0.8556030400   -1.0116837400    0.6394564600
   1.9215765200    1.0181372900    0.0008525200
   0.3151617900    1.9867230500   -0.2568178600
   0.6933004900    1.1986987000    1.3055783900
  -1.5663660900    0.0135834900   -0.3985442100
