MD17 STRUCTURE
  1000.0000000
   1.0000000000    0.0000000000    0.0000000000
   0.0000000000    1.0000000000    0.0000000000
   0.0000000000    0.0000000000    1.0000000000
C O H
2 1 6
Cartesian
   0.1854105000    0.4772994400   -0.2083867100
  -1.1373471200   -0.1547046400   -0.7145701800
   0.8500367200   -0.3331006900    0.8039399100
   1.0106818800    0.7543090600   -0.9938480100
  -0.0085339000    1.3921768200    0.3199507700
  -1.3030462100    0.2229881500   -1.7161170100
  -1.2736087900   -1.2660894700   -0.8175704600
  -1.8613911400    0.0824077100    0.0331442300
   1.2853243500    0.2560689200    1.4112424200
