MD17 STRUCTURE
  1000.0000000
   1.0000000000    0.0000000000    0.0000000000
   0.0000000000    1.0000000000    0.0000000000
   0.0000000000    0.0000000000    1.0000000000
C O H
2 1 6
Cartesian
  -0.0896811400    0.5389708000    0.0946655300
  -0.9190567100   -0.2768251600   -0.9787490600
   0.9410262100   -0.1718038800    0.8227447300
   0.5135282400    1.3513833100   -0.1906484600
  -0.9274979800    0.8059124000    0.7908311700
  -1.0990826600    0.4401432600   -1.7279109100
  -0.3721221200   -0.9959635200   -1.5639856400
  -1.7908042200   -0.8652958700   -0.5653056000
   0.7579439000   -1.1343241900    0.7321072500
