MD17 STRUCTURE
  1000.0000000
   1.0000000000    0.0000000000    0.0000000000
   0.0000000000    1.0000000000    0.0000000000
   0.0000000000    0.0000000000    1.0000000000
C O H
2 1 6
Cartesian
   0.0453813300   -0.3189450800   -0.5539155900
  -1.2771456000    0.1844475100    0.1202524700
   1.0878406100    0.1208426200    0.4211622900
   0.2019972000   -1.4195165400   -0.6670043800
   0.1194919000    0.0578587200   -1.5416324700
  -1.6657727100   -0.5781154300    0.7227404600
  -1.1053228000    1.1155879700    0.6016411500
  -2.1355778900    0.4009498700   -0.5945592300
   1.9943129100    0.1062408000   -0.0388813200
