MD17 STRUCTURE
  1000.0000000
   1.0000000000    0.0000000000    0.0000000000
   0.0000000000    1.0000000000    0.0000000000
   0.0000000000    0.0000000000    1.0000000000
C O H
2 1 6
Cartesian
   0.1663294100    0.5705431100    0.0722600400
  -0.8337119600    0.0002315400   -1.0397324400
   0.6073607300   -0.5148374900    0.8457911400
   0.8281062800    1.2879367100   -0.4351457800
  -0.4376174200    1.1433216800    0.8245992900
  -1.2585152200    0.7424507300   -1.7307707100
  -0.2391196500   -0.8411433800   -1.6185164700
  -1.6213078600   -0.6826883000   -0.5919015500
   1.0391939500   -0.2805739300    1.6546678500
