MD17 STRUCTURE
  1000.0000000
   1.0000000000    0.0000000000    0.0000000000
   0.0000000000    1.0000000000    0.0000000000
   0.0000000000    0.0000000000    1.0000000000
C O H
2 1 6
Cartesian
  -0.2951205600    0.1373731500   -0.4625440400
  -0.9667425100    0.3262650800    0.9412608400
   1.1174617400   -0.4576938400   -0.4113760800
  -0.7584621900   -0.5616981400   -1.2206325900
  -0.3080314700    1.0669380700   -1.1266070900
  -2.0335684400    0.5076091400    0.8403934900
  -0.8834385500   -0.5504512500    1.4450154500
  -0.5061875600    1.0540755500    1.5537394300
   1.7872897500    0.2224150100   -0.6664165100
