MD17 STRUCTURE
  1000.0000000
   1.0000000000    0.0000000000    0.0000000000
   0.0000000000    1.0000000000    0.0000000000
   0.0000000000    0.0000000000    1.0000000000
C O H
2 1 6
Cartesian
   0.1117112300    0.5987893800   -0.0078417600
  -0.8348207400   -0.0418409400   -0.9891239500
   0.7123715100   -0.4731027300    0.9202542800
   0.8272250100    1.0960534100   -0.6926851100
  -0.2218562400    1.3880561300    0.6401020300
  -1.3006945700    0.7124270600   -1.6281327500
  -0.3480873800   -0.8457450600   -1.6864678400
  -1.6693762500   -0.4130469400   -0.4774465300
   0.0207023200   -1.0661578300    1.1170270400
