MD17 STRUCTURE
  1000.0000000
   1.0000000000    0.0000000000    0.0000000000
   0.0000000000    1.0000000000    0.0000000000
   0.0000000000    0.0000000000    1.0000000000
C O H
2 1 6
Cartesian
   0.2139819000    0.4212157100    0.2098476900
  -0.9750879400    0.6601382700   -0.7109413600
   0.7102537300   -0.9708114600    0.4491508900
   1.0510501200    1.0043947900   -0.2668966300
   0.2703768300    1.0456700800    1.0881387000
  -0.9023957000    1.6996807200   -0.9586154700
  -0.7542426300    0.0876217200   -1.5688536800
  -1.8464664200    0.2942941100   -0.1197714200
  -0.0240230600   -1.6086237800    0.6675377500
