MD17 STRUCTURE
  1000.0000000
   1.0000000000    0.0000000000    0.0000000000
   0.0000000000    1.0000000000    0.0000000000
   0.0000000000    0.0000000000    1.0000000000
C O H
2 1 6
Cartesian
   0.2532799700    0.0780262600    0.4958712900
  -1.2112821900    0.2530290400    0.3960930700
   0.8425464400   -0.2563813000   -0.8278384900
   0.8113264400    1.0739091000    0.6653559700
   0.5605161900   -0.6402093900    1.2916952600
  -1.6302754300    0.2229812500    1.4562522400
  -1.4271646200    1.0920802300   -0.1657337900
  -1.6275041100   -0.5835755100   -0.2125394700
   1.3537018500   -1.0419351900   -0.5231715700
