MD17 STRUCTURE
  1000.0000000
   1.0000000000    0.0000000000    0.0000000000
   0.0000000000    1.0000000000    0.0000000000
   0.0000000000    0.0000000000    1.0000000000
C O H
2 1 6
Cartesian
  -0.3195982300   -0.1096965100   -0.3870358700
  -0.9351710600    0.1170465600    0.8914688500
   1.1283856500   -0.0146097100   -0.5105358500
  -0.6695518500   -1.0908173700   -0.8743556300
  -0.5713822500    0.6167084800   -1.1927870800
  -1.9819601100    0.2764181500    0.8927656100
  -0.7532146100   -0.6730615700    1.7277535200
  -0.5398040500    1.0549796800    1.1993693200
   1.5555849400   -0.0414060900    0.3403094900
