MD17 STRUCTURE
  1000.0000000
   1.0000000000    0.0000000000    0.0000000000
   0.0000000000    1.0000000000    0.0000000000
   0.0000000000    0.0000000000    1.0000000000
C O H
9 4 8
Cartesian
   2.3328613600   -0.4855116900    0.3369331200
   0.6221653800    1.6443913600    0.0341738100
   2.8129095700    0.7586211800    0.3307518300
   1.9803654600    1.8431434800    0.0922993200
  -3.5526882100    1.2671068600    0.5676516400
   0.9815785100   -0.7313635500    0.0859881900
   0.0288689900    0.3703904400   -0.0106678700
  -0.6494393400   -2.4879575300    0.0166329200
  -2.1003511700    2.0606911100   -1.1081113900
   1.5493806000   -3.0113417400   -0.1324917600
   0.4679594000   -2.1412167200   -0.0706471400
  -2.2946013700    1.2173307100   -0.2770721600
  -1.2958346400    0.3164494800    0.1963130900
   1.3045527300   -3.9487655300   -0.0906015100
   2.9871937600   -1.2971538300    0.4869419000
  -0.0974605600    2.4625156200    0.0220810700
   3.8406149500    0.9207271400    0.5188214800
   2.4704807900    2.7715421100    0.0569232400
  -3.2102802200    2.0263804800    1.3174806800
  -4.2088550000    1.6443408900   -0.1325613700
  -3.7290591000    0.3839364000    1.1516382700
