MD17 STRUCTURE
  1000.0000000
   1.0000000000    0.0000000000    0.0000000000
   0.0000000000    1.0000000000    0.0000000000
   0.0000000000    0.0000000000    1.0000000000
C O H
2 1 6
Cartesian
   0.4916641800    0.1269108900   -0.1957985500
  -0.7667457300    1.0897366600   -0.2793005900
   0.2724707100   -1.1424879500    0.3987365000
   0.7873026500   -0.0139834300   -1.2701615100
   1.4516259200    0.5288838600    0.3084575300
  -1.2557117600    0.9878330300   -1.2532465100
  -1.3537414600    0.8486451600    0.5669296900
  -0.4828792900    2.1639444700   -0.3081410800
  -0.1947168400   -0.8793717200    1.2881939900
