MD17 STRUCTURE
  1000.0000000
   1.0000000000    0.0000000000    0.0000000000
   0.0000000000    1.0000000000    0.0000000000
   0.0000000000    0.0000000000    1.0000000000
C O H
2 1 6
Cartesian
   0.5081179500    0.2990832000    0.1512864500
  -0.6943812200    0.9542337900   -0.5962556600
   0.1393284400   -1.1347748200    0.4073415000
   1.4430532700    0.4618937300   -0.3831950000
   0.5566029300    0.8387929300    1.1333387600
  -1.0615145300    0.3434573300   -1.3325854400
  -1.5881246100    1.1288271200    0.0026110800
  -0.3679280100    1.9081115900   -0.9548172200
   1.0248398600   -1.6045208000    0.3710589000
