MD17 STRUCTURE
  1000.0000000
   1.0000000000    0.0000000000    0.0000000000
   0.0000000000    1.0000000000    0.0000000000
   0.0000000000    0.0000000000    1.0000000000
C O H
2 1 6
Cartesian
   0.4793459800    0.1585086400   -0.3207705100
  -0.7913906400    0.9909768500   -0.2939551800
   0.3394119400   -1.0519689700    0.5344004700
   0.6665307700   -0.2900713300   -1.3666078400
   1.4129237500    0.7378144500   -0.0759839500
  -1.2628360400    1.3704092400   -1.3047364500
  -1.5371105400    0.4660992700    0.2712840700
  -0.4948327400    1.7614560100    0.3558620200
  -0.4549230200   -1.0462880300    0.9625726000
