MD17 STRUCTURE
  1000.0000000
   1.0000000000    0.0000000000    0.0000000000
   0.0000000000    1.0000000000    0.0000000000
   0.0000000000    0.0000000000    1.0000000000
C O H
2 1 6
Cartesian
   0.1565412700   -0.1476926700   -0.5276902900
   0.5072622400    1.1767918800    0.1762642000
  -0.6575215000   -0.9597444900    0.2715304300
  -0.3202086900    0.0430251700   -1.5472912400
   1.1791503600   -0.7038281300   -0.6315018600
   1.3868806100    1.2944809900    0.8175495700
   0.7237834800    1.9162356100   -0.6245810700
  -0.2903025500    1.5221587800    0.8162428500
  -0.1531532000   -1.1020326500    1.0471035900
