MD17 STRUCTURE
  1000.0000000
   1.0000000000    0.0000000000    0.0000000000
   0.0000000000    1.0000000000    0.0000000000
   0.0000000000    0.0000000000    1.0000000000
C O H
2 1 6
Cartesian
  -0.2565991200   -0.4839555500    0.1836340900
  -1.0620907300    0.8127386300   -0.2078016100
   1.1849888800   -0.2919762100    0.0823182400
  -0.5113613200   -0.7493723100    1.2005113300
  -0.6326617000   -1.2691110500   -0.4604344300
  -0.5771336500    1.1162106100   -1.1468509300
  -2.1090833100    0.5578546500   -0.3756401600
  -0.7251516800    1.5012055300    0.5959583500
   1.4582630000   -0.4414500600   -0.8322295700
