MD17 STRUCTURE
  1000.0000000
   1.0000000000    0.0000000000    0.0000000000
   0.0000000000    1.0000000000    0.0000000000
   0.0000000000    0.0000000000    1.0000000000
C O H
9 4 8
Cartesian
   2.0102742600   -1.1845372200   -0.0203683300
   1.2136484000    1.2942652000   -0.6641745000
   2.9455739300   -0.4348982200   -0.7374242900
   2.4540149700    0.7307985700   -1.2048806900
  -2.7976280300    2.4645610400    0.3983497200
   0.6429400400   -0.8232736100    0.2877801900
   0.3398029600    0.5248712400    0.0069520500
  -1.3816505300   -1.6187823400    1.3940640500
  -1.6766312400    1.3926731200   -1.4634629300
   0.2138960300   -3.0498984600    0.5246135300
  -0.2937341100   -1.7854212700    0.8618124000
  -1.7155925300    1.6563354900   -0.3090801300
  -0.8227323000    1.1213020200    0.5996066900
  -0.1780537700   -3.7325907500    1.0450322300
   2.3672421600   -2.0926033900    0.4363811800
   0.9270204900    2.2986751600   -0.9245583100
   3.9147178800   -0.8669561000   -0.9661617700
   3.1306445300    1.4876952900   -1.6845079100
  -2.6156112700    3.4742120700    0.5497128000
  -3.7552198100    2.5703691500   -0.1630243900
  -2.7672716500    1.9611727900    1.4199353900
