MD17 STRUCTURE
  1000.0000000
   1.0000000000    0.0000000000    0.0000000000
   0.0000000000    1.0000000000    0.0000000000
   0.0000000000    0.0000000000    1.0000000000
C O H
2 1 6
Cartesian
  -0.0294007900   -0.1491914700    0.5143115900
  -1.1542633000    0.7135238400   -0.2409317500
   1.1046370200   -0.5304966600   -0.1924105200
   0.3121178500    0.3775498800    1.4415664100
  -0.5625905700   -1.0479387800    0.8420501200
  -1.9182908700    0.6678044800    0.4516910700
  -0.7942665700    1.7613404900   -0.5489906700
  -1.3981131100    0.1886502100   -1.2644686800
   0.9304903500   -0.2527722500   -1.1252636200
