MD17 STRUCTURE
  1000.0000000
   1.0000000000    0.0000000000    0.0000000000
   0.0000000000    1.0000000000    0.0000000000
   0.0000000000    0.0000000000    1.0000000000
C O H
2 1 6
Cartesian
  -0.3765077700    0.2186134300   -0.3538879900
  -0.5312075400    0.1187142800    1.1616701100
   0.8301334100   -0.3027048700   -0.7104636500
  -1.1211285100   -0.3217741500   -1.0402259600
  -0.4786559900    1.2319379000   -0.5678632100
  -1.4231374700    0.2795323600    1.7234779100
  -0.2571820000   -0.8136847700    1.5244680300
   0.0317614900    0.9211292500    1.6774137100
   0.8867562100   -0.5133218400   -1.6654226400
