MD17 STRUCTURE
  1000.0000000
   1.0000000000    0.0000000000    0.0000000000
   0.0000000000    1.0000000000    0.0000000000
   0.0000000000    0.0000000000    1.0000000000
C O H
2 1 6
Cartesian
   0.5225031500    0.1919481600   -0.0743442600
  -0.7675079500    1.0381519000   -0.3884564900
   0.2751359900   -1.1308305900    0.4198832800
   1.0457089300    0.0711381900   -1.0476766600
   1.2470922600    0.8077051300    0.4468398300
  -1.2594135300    0.4949380700   -1.2227565200
  -1.4691557900    1.0483550900    0.3755420100
  -0.4348465800    2.0616247500   -0.6052640600
  -0.5782101500   -1.1931526700    0.9031282400
