MD17 STRUCTURE
  1000.0000000
   1.0000000000    0.0000000000    0.0000000000
   0.0000000000    1.0000000000    0.0000000000
   0.0000000000    0.0000000000    1.0000000000
C O H
2 1 6
Cartesian
   0.1761061000   -0.4503535400   -0.2061700500
  -1.3483250600    0.0741709700   -0.4072958100
   1.0845339200    0.3491705300    0.5256239600
   0.0366726100   -1.4609466800    0.2410006400
   0.6425949200   -0.5619155700   -1.1362808500
  -1.2503057900    1.0854969600   -0.7140469000
  -1.8290233900   -0.3604245300   -1.3354768000
  -1.9327458600   -0.0164133000    0.4234109100
   1.0848773200    0.2528154100    1.4880839100
