MD17 STRUCTURE
  1000.0000000
   1.0000000000    0.0000000000    0.0000000000
   0.0000000000    1.0000000000    0.0000000000
   0.0000000000    0.0000000000    1.0000000000
C O H
2 1 6
Cartesian
   0.3440888500    0.3072600100    0.1933282300
  -0.6681984700    0.8690674900   -0.9002473800
   0.2434000800   -1.0720872700    0.6317521800
   1.3559991700    0.3116683700   -0.3384229900
   0.2372243100    0.9483218200    1.1056735700
  -0.2302975100    1.7682013000   -1.2188682000
  -0.8162070300    0.1148843000   -1.6308537400
  -1.6807501000    1.1224246000   -0.4179274700
   1.1315817600   -1.2665875800    0.8960751700
