MD17 STRUCTURE
  1000.0000000
   1.0000000000    0.0000000000    0.0000000000
   0.0000000000    1.0000000000    0.0000000000
   0.0000000000    0.0000000000    1.0000000000
C O H
2 1 6
Cartesian
  -0.2915972200   -0.0335425700   -0.3863596100
   0.9923596400    0.8458220100   -0.4540236200
  -0.6687322500   -0.6980846900    0.7980631100
  -1.1536570300    0.5276495900   -0.7900086800
  -0.4628537000   -0.8225286500   -1.2202521600
   1.9509055500    0.3089526000   -0.7654854900
   0.8780978500    1.5929574400   -1.2026738600
   1.1501739300    1.3413607600    0.5076367300
  -0.0989697500   -1.5481303800    0.8169150900
