MD17 STRUCTURE
  1000.0000000
   1.0000000000    0.0000000000    0.0000000000
   0.0000000000    1.0000000000    0.0000000000
   0.0000000000    0.0000000000    1.0000000000
C O H
2 1 6
Cartesian
   0.1190448000   -0.1087837000    0.5496099200
  -1.3880000800    0.2723986700    0.0373298900
   1.1614962700   -0.1888909300   -0.5261110500
   0.3896068500    0.5855935000    1.4579463700
   0.0805726200   -1.0452103600    1.1570342700
  -2.2576745800    0.0166961700    0.5847511500
  -1.3971754100    1.2500502300   -0.3615999500
  -1.5887275800   -0.4450503900   -0.8427160600
   1.4565348000    0.6851054100   -0.6382881100
