MD17 STRUCTURE
  1000.0000000
   1.0000000000    0.0000000000    0.0000000000
   0.0000000000    1.0000000000    0.0000000000
   0.0000000000    0.0000000000    1.0000000000
C O H
2 1 6
Cartesian
   0.3268419600   -0.0532060300   -0.3996995700
  -0.5108139200    1.2359704100   -0.2340365300
   0.1664295600   -1.0190811300    0.6229288200
  -0.1030515200   -0.5241163200   -1.2534333400
   1.3107826400   -0.0282895300   -0.7005165800
  -0.6108346000    1.6289220200   -1.2279755500
  -1.5304332600    0.9129110800    0.0453683000
  -0.1167809400    1.9486410500    0.5243351900
   0.5997570400   -1.8572436600    0.2758991300
