MD17 STRUCTURE
  1000.0000000
   1.0000000000    0.0000000000    0.0000000000
   0.0000000000    1.0000000000    0.0000000000
   0.0000000000    0.0000000000    1.0000000000
C O H
2 1 6
Cartesian
   0.0526969100    0.3519212600    0.4757733300
  -1.3371641600    0.0118379900   -0.3574748100
   1.1839117000   -0.3404119800   -0.0603820000
   0.2436167600    1.3604024500    0.7779907700
  -0.1742233200    0.0237629100    1.5025939100
  -1.2266881500    0.6812091200   -1.2307926200
  -1.0993876200   -1.0734312900   -0.6951572300
  -2.2941185300    0.1625496800    0.1783580700
   1.0629711900   -0.0870958700   -0.9841826600
